
Gurobi 11.0.3 (mac64[x86]) logging started Fri Apr 11 15:11:08 2025

Set parameter LogFile to value "Results/Conservative_experiment/sanity_check_v40_none.log"
Set parameter TimeLimit to value 84600
Set parameter Method to value 2
Set parameter Crossover to value 0
Set parameter BarHomogeneous to value 1
Set parameter BarConvTol to value 1e-10
Gurobi Optimizer version 11.0.3 build v11.0.3rc0 (mac64[x86] - Darwin 23.4.0 23E214)

CPU model: Intel(R) Core(TM) i7-1060NG7 CPU @ 1.20GHz
Thread count: 4 physical cores, 8 logical processors, using up to 8 threads

Optimize a model with 1494624 rows, 1917920 columns and 7072112 nonzeros
Model fingerprint: 0x25f7ed32
Coefficient statistics:
  Matrix range     [2e-01, 1e+00]
  Objective range  [6e-05, 5e+00]
  Bounds range     [0e+00, 0e+00]
  RHS range        [2e+00, 1e+03]
Presolve removed 1232448 rows and 1427136 columns
Presolve time: 4.84s
Presolved: 262176 rows, 490784 columns, 1744288 nonzeros
Ordering time: 0.00s

Barrier statistics:
 AA' NZ     : 3.562e+03
 Factor NZ  : 9.362e+03 (roughly 1 MB of memory)
 Factor Ops : 1.068e+05 (less than 1 second per iteration)
 Threads    : 1

                  Objective                Residual
Iter       Primal          Dual         Primal    Dual     Compl     Time
   0   2.94660971e+03  5.33394438e+03  3.33e+00 6.97e+03  2.04e+05     5s
   1  -7.84306057e+04  3.10901919e+05  1.78e-15 2.62e+03  2.23e+04     5s
   2  -3.81023339e+04  1.60738867e+04  3.33e-15 8.69e+01  7.58e+02     5s
   3  -2.47333016e+03  4.02092771e+03  4.92e-13 7.58e+00  2.11e+01     5s
   4   3.01579283e+03  4.55328206e+03  6.78e-13 9.80e-01  1.94e+00     5s
   5   3.86898795e+03  4.68349647e+03  3.52e-13 3.11e-01  6.88e-01     5s
   6   4.43429990e+03  4.73979972e+03  1.24e-13 1.35e-01  2.58e-01     5s
   7   4.72015964e+03  4.75334169e+03  7.56e-14 3.96e-02  4.74e-02     5s
   8   4.75697307e+03  4.76159544e+03  8.68e-15 1.74e-03  3.40e-03     5s
   9   4.75972903e+03  4.76102402e+03  9.09e-13 5.02e-04  8.43e-04     5s
  10   4.76076302e+03  4.76094145e+03  6.49e-12 1.82e-04  1.41e-04     5s
  11   4.76088436e+03  4.76091236e+03  8.84e-13 1.63e-05  1.61e-05     5s
  12   4.76089318e+03  4.76091961e+03  6.61e-13 9.02e-07  1.07e-05     5s
  13   4.76089962e+03  4.76091990e+03  5.02e-13 2.39e-07  8.05e-06     5s
  14   4.76092000e+03  4.76092000e+03  5.22e-18 4.17e-12  1.35e-10     5s
  15   4.76092000e+03  4.76092000e+03  1.31e-12 1.25e-11  9.29e-13     5s

Barrier solved model in 15 iterations and 5.04 seconds (3.37 work units)
Optimal objective 4.76092000e+03

